(set-info :status unknown)
(declare-fun mem0 () (_ BitVec 8))
(declare-fun |ana_WillNotOverflowUnsignedAdd(%lhs, %rhs)| () (_ BitVec 1))
(declare-fun %rhs () (_ BitVec 12))
(declare-fun %lhs () (_ BitVec 12))
(assert
 (let (($x5975 (= |ana_WillNotOverflowUnsignedAdd(%lhs, %rhs)| (_ bv1 1))))
 (let (($x7856 (= (bvadd ((_ zero_extend 1) %lhs) ((_ zero_extend 1) %rhs)) ((_ zero_extend 1) (bvadd %lhs %rhs)))))
 (and (=> $x5975 $x7856) $x5975 (and (distinct mem0 mem0) true)))))
(check-sat)
